3
40
10579
[[822,934,720,125,604,155, 45,934,668,127,114,323,428,266,861,801,580,363,339,141,344,769,843, 49,321,898,906,570,548,475,929,943,860,373,522,100,867,960,798,393],
 [809,333,769,882,770,840,115,528,247,  4,594,669,424,830,121,611,351,592,406,263,321,954,203,225,261,549,870, 41,488,986,521,577,986,471,452,615,168,873,959,888],
 [ 74,478,882,458,465,741,518,193,585,827,120,862,125,594, 26,257,529,489,520,465,886,135,160,831,618,159,363,274,167,709,160,360,460,261,418,136,292,140,738,567]]
[189,182,739,185,124,989,352,580,851,201,244,415,971,784,974,489,880,285,  9,316, 21,336,501,859,328,371,841,818,855,365,427,443,940,869,793,926,248,995,106,357]